9
0 65 20 29 53 96 86 98 16 
53 0 26 88 13 100 78 50 6 
28 84 0 66 55 38 44 1 73 
77 40 21 0 31 13 38 3 53 
94 59 70 77 0 76 20 32 39 
80 73 26 35 54 0 30 52 24 
26 3 73 24 67 74 0 96 6 
7 82 94 43 45 31 32 0 46 
84 75 14 66 36 6 78 79 0 
